(set-logic QF_SLIA)
(declare-fun var0 () String)
(assert (str.in_re var0 (re.++ ((_ re.loop 10 717) (re.++ (re.union (str.to_re "ge") (re.union (str.to_re "6ka") (re.union (str.to_re ";N") (str.to_re "4q")))) (re.++ (re.union (str.to_re "Ec") (re.union (str.to_re "z") (re.union (str.to_re "zBl") (str.to_re "=>W")))) (re.++ (re.union (str.to_re "KL") (re.union (str.to_re "_9,") (re.union (str.to_re "GZ(") (str.to_re "?a")))) (re.union (str.to_re "!Q") (re.union (str.to_re "=K=") (re.union (str.to_re "`'") (str.to_re ".9$")))))))) (re.++ ((_ re.loop 14 752) (re.++ (re.union (str.to_re ".") (re.union (str.to_re "6P") (re.union (str.to_re "Pl") (str.to_re "L")))) (re.++ (re.union (str.to_re "vn}") (re.union (str.to_re ")^") (re.union (str.to_re "R") (str.to_re "Dz")))) (re.++ (re.union (str.to_re "j`}") (re.union (str.to_re "&o") (re.union (str.to_re "7") (str.to_re "WM")))) (re.union (str.to_re ",K") (re.union (str.to_re "wn`") (re.union (str.to_re "2h") (str.to_re "Jk")))))))) (re.++ ((_ re.loop 3 552) (re.++ (re.union (str.to_re ":7V") (re.union (str.to_re "R") (re.union (str.to_re "]s") (str.to_re "/")))) (re.++ (re.union (str.to_re "N&)") (re.union (str.to_re "<") (re.union (str.to_re "8:^") (str.to_re "6")))) (re.++ (re.union (str.to_re "JB") (re.union (str.to_re ",") (re.union (str.to_re "5") (str.to_re "T")))) (re.union (str.to_re "$") (re.union (str.to_re "Q") (re.union (str.to_re "C") (str.to_re "M9p")))))))) ((_ re.loop 20 979) (re.++ (re.union (str.to_re "w+H") (re.union (str.to_re "R|K") (re.union (str.to_re "g(") (str.to_re "j|4")))) (re.++ (re.union (str.to_re "qYo") (re.union (str.to_re "#`;") (re.union (str.to_re "_%") (str.to_re "aW?")))) (re.++ (re.union (str.to_re ">\\") (re.union (str.to_re "?5") (re.union (str.to_re "\\,c") (str.to_re "3wJ")))) (re.union (str.to_re "[m") (re.union (str.to_re "J") (re.union (str.to_re "rn") (str.to_re "&")))))))))))))
(assert (not (str.in_re var0 (re.++ ((_ re.loop 5 546) (re.++ (re.union (str.to_re "DK(") (re.union (str.to_re "E=") (re.union (str.to_re "Q/:") (str.to_re "!z")))) (re.++ (re.union (str.to_re "ZP") (re.union (str.to_re "3L") (re.union (str.to_re "7(") (str.to_re "PN")))) (re.++ (re.union (str.to_re "q") (re.union (str.to_re ":|") (re.union (str.to_re ".C&") (str.to_re "T")))) (re.union (str.to_re "G1?") (re.union (str.to_re "quM") (re.union (str.to_re "dVB") (str.to_re "kl@")))))))) (re.++ ((_ re.loop 6 423) (re.++ (re.union (str.to_re "<") (re.union (str.to_re "tcL") (re.union (str.to_re "D?") (str.to_re "ON")))) (re.++ (re.union (str.to_re "h:") (re.union (str.to_re "L\\") (re.union (str.to_re "W[") (str.to_re "9%w")))) (re.++ (re.union (str.to_re "#qJ") (re.union (str.to_re "f") (re.union (str.to_re "g") (str.to_re "%|7")))) (re.union (str.to_re "z") (re.union (str.to_re "m") (re.union (str.to_re "VaD") (str.to_re ")ei")))))))) (re.++ ((_ re.loop 3 576) (re.++ (re.union (str.to_re "A") (re.union (str.to_re "]{") (re.union (str.to_re ")>") (str.to_re "&+")))) (re.++ (re.union (str.to_re ":~Z") (re.union (str.to_re "M+$") (re.union (str.to_re "[Y") (str.to_re "2/%")))) (re.++ (re.union (str.to_re "#1") (re.union (str.to_re "#L0") (re.union (str.to_re "~FA") (str.to_re "z")))) (re.union (str.to_re "Gih") (re.union (str.to_re "sO") (re.union (str.to_re "-6d") (str.to_re "@")))))))) ((_ re.loop 6 122) (re.++ (re.union (str.to_re "UC'") (re.union (str.to_re "px6") (re.union (str.to_re "4U") (str.to_re "\u0022Iu")))) (re.++ (re.union (str.to_re "\u0022") (re.union (str.to_re "f8S") (re.union (str.to_re "W") (str.to_re "EP")))) (re.++ (re.union (str.to_re "6W") (re.union (str.to_re "LpM") (re.union (str.to_re "ca") (str.to_re "&&t")))) (re.union (str.to_re "9l|") (re.union (str.to_re "A") (re.union (str.to_re "P") (str.to_re "I]"))))))))))))))
(assert (not (str.in_re var0 (re.++ (re.* re.allchar) (re.++ (re.union (str.to_re "<") (re.union (str.to_re ">") (re.union (str.to_re "'") (re.union (str.to_re "\u0022") (str.to_re "&"))))) (re.* re.allchar))))))
(assert (<= 50 (str.len var0)))
(check-sat)
(get-model)
